c FILE: random-n100-d40-i-n100-d40-1.col

p edge 100 1980
e 1 2
e 1 5
e 1 6
e 1 10
e 1 15
e 1 19
e 1 20
e 1 21
e 1 22
e 1 23
e 1 25
e 1 32
e 1 33
e 1 34
e 1 35
e 1 38
e 1 41
e 1 42
e 1 43
e 1 45
e 1 47
e 1 48
e 1 49
e 1 50
e 1 52
e 1 54
e 1 55
e 1 57
e 1 58
e 1 61
e 1 62
e 1 66
e 1 68
e 1 69
e 1 70
e 1 72
e 1 79
e 1 82
e 1 83
e 1 88
e 1 95
e 1 96
e 2 4
e 2 8
e 2 9
e 2 12
e 2 14
e 2 15
e 2 18
e 2 20
e 2 22
e 2 23
e 2 33
e 2 36
e 2 41
e 2 44
e 2 46
e 2 51
e 2 54
e 2 59
e 2 60
e 2 61
e 2 65
e 2 70
e 2 80
e 2 82
e 2 83
e 2 86
e 2 87
e 2 94
e 2 96
e 2 98
e 2 100
e 3 5
e 3 6
e 3 7
e 3 11
e 3 15
e 3 16
e 3 20
e 3 22
e 3 23
e 3 24
e 3 26
e 3 28
e 3 31
e 3 38
e 3 42
e 3 43
e 3 45
e 3 50
e 3 54
e 3 55
e 3 56
e 3 58
e 3 59
e 3 61
e 3 63
e 3 64
e 3 67
e 3 70
e 3 72
e 3 75
e 3 76
e 3 80
e 3 82
e 3 84
e 3 91
e 3 95
e 3 99
e 3 100
e 4 6
e 4 7
e 4 13
e 4 16
e 4 17
e 4 20
e 4 23
e 4 25
e 4 26
e 4 30
e 4 31
e 4 32
e 4 34
e 4 35
e 4 36
e 4 38
e 4 39
e 4 40
e 4 42
e 4 44
e 4 49
e 4 51
e 4 53
e 4 54
e 4 62
e 4 65
e 4 66
e 4 68
e 4 69
e 4 71
e 4 72
e 4 77
e 4 79
e 4 81
e 4 83
e 4 86
e 4 87
e 4 99
e 5 6
e 5 12
e 5 15
e 5 17
e 5 18
e 5 27
e 5 28
e 5 29
e 5 31
e 5 32
e 5 34
e 5 35
e 5 40
e 5 42
e 5 43
e 5 44
e 5 47
e 5 48
e 5 51
e 5 61
e 5 62
e 5 64
e 5 65
e 5 66
e 5 67
e 5 72
e 5 75
e 5 79
e 5 81
e 5 83
e 5 84
e 5 85
e 5 86
e 5 87
e 5 88
e 5 100
e 6 8
e 6 9
e 6 11
e 6 12
e 6 17
e 6 18
e 6 21
e 6 23
e 6 32
e 6 33
e 6 34
e 6 37
e 6 40
e 6 41
e 6 44
e 6 45
e 6 46
e 6 47
e 6 48
e 6 51
e 6 52
e 6 53
e 6 54
e 6 55
e 6 56
e 6 57
e 6 60
e 6 65
e 6 70
e 6 71
e 6 75
e 6 83
e 6 88
e 6 91
e 6 92
e 6 95
e 6 97
e 7 9
e 7 16
e 7 23
e 7 24
e 7 25
e 7 26
e 7 27
e 7 28
e 7 30
e 7 34
e 7 36
e 7 37
e 7 38
e 7 40
e 7 44
e 7 45
e 7 51
e 7 54
e 7 55
e 7 56
e 7 61
e 7 63
e 7 65
e 7 66
e 7 69
e 7 70
e 7 72
e 7 73
e 7 76
e 7 77
e 7 79
e 7 85
e 7 88
e 7 89
e 7 91
e 7 92
e 7 93
e 7 99
e 8 13
e 8 21
e 8 23
e 8 24
e 8 27
e 8 30
e 8 32
e 8 33
e 8 35
e 8 39
e 8 40
e 8 42
e 8 49
e 8 50
e 8 53
e 8 54
e 8 56
e 8 59
e 8 60
e 8 61
e 8 63
e 8 65
e 8 66
e 8 68
e 8 70
e 8 75
e 8 76
e 8 79
e 8 80
e 8 81
e 8 82
e 8 83
e 8 87
e 8 88
e 8 89
e 8 94
e 8 98
e 8 99
e 9 14
e 9 16
e 9 19
e 9 26
e 9 28
e 9 30
e 9 31
e 9 36
e 9 37
e 9 38
e 9 45
e 9 49
e 9 52
e 9 55
e 9 56
e 9 57
e 9 59
e 9 61
e 9 62
e 9 64
e 9 67
e 9 68
e 9 70
e 9 71
e 9 72
e 9 73
e 9 75
e 9 78
e 9 80
e 9 83
e 9 86
e 9 97
e 9 99
e 10 11
e 10 12
e 10 13
e 10 19
e 10 22
e 10 24
e 10 28
e 10 30
e 10 32
e 10 35
e 10 37
e 10 38
e 10 41
e 10 45
e 10 46
e 10 48
e 10 49
e 10 51
e 10 54
e 10 55
e 10 61
e 10 72
e 10 73
e 10 75
e 10 77
e 10 78
e 10 80
e 10 81
e 10 83
e 10 86
e 10 88
e 10 91
e 10 92
e 10 93
e 10 97
e 10 98
e 10 99
e 10 100
e 11 12
e 11 13
e 11 16
e 11 18
e 11 22
e 11 23
e 11 27
e 11 28
e 11 29
e 11 32
e 11 34
e 11 37
e 11 41
e 11 44
e 11 46
e 11 49
e 11 51
e 11 52
e 11 53
e 11 54
e 11 57
e 11 59
e 11 61
e 11 63
e 11 66
e 11 68
e 11 69
e 11 70
e 11 71
e 11 74
e 11 76
e 11 77
e 11 78
e 11 79
e 11 82
e 11 84
e 11 85
e 11 89
e 11 92
e 11 93
e 11 94
e 11 96
e 11 97
e 11 99
e 11 100
e 12 14
e 12 18
e 12 19
e 12 27
e 12 30
e 12 31
e 12 32
e 12 34
e 12 38
e 12 39
e 12 41
e 12 42
e 12 43
e 12 46
e 12 48
e 12 50
e 12 51
e 12 54
e 12 55
e 12 56
e 12 58
e 12 59
e 12 60
e 12 61
e 12 64
e 12 65
e 12 67
e 12 68
e 12 72
e 12 74
e 12 75
e 12 77
e 12 79
e 12 81
e 12 83
e 12 87
e 12 91
e 12 93
e 12 94
e 12 99
e 13 17
e 13 19
e 13 22
e 13 24
e 13 26
e 13 27
e 13 30
e 13 32
e 13 33
e 13 35
e 13 36
e 13 40
e 13 45
e 13 48
e 13 52
e 13 53
e 13 57
e 13 58
e 13 59
e 13 60
e 13 65
e 13 70
e 13 82
e 13 83
e 13 84
e 13 85
e 13 86
e 13 87
e 13 88
e 13 90
e 13 92
e 13 93
e 13 95
e 13 97
e 13 99
e 13 100
e 14 15
e 14 16
e 14 18
e 14 20
e 14 24
e 14 26
e 14 27
e 14 29
e 14 30
e 14 33
e 14 35
e 14 37
e 14 38
e 14 39
e 14 40
e 14 43
e 14 44
e 14 46
e 14 48
e 14 51
e 14 52
e 14 55
e 14 58
e 14 60
e 14 61
e 14 64
e 14 67
e 14 69
e 14 77
e 14 80
e 14 81
e 14 83
e 14 90
e 14 91
e 14 92
e 14 93
e 14 96
e 14 97
e 15 17
e 15 18
e 15 21
e 15 22
e 15 23
e 15 25
e 15 26
e 15 27
e 15 29
e 15 30
e 15 35
e 15 36
e 15 37
e 15 38
e 15 39
e 15 45
e 15 50
e 15 51
e 15 52
e 15 54
e 15 56
e 15 58
e 15 61
e 15 62
e 15 63
e 15 64
e 15 65
e 15 67
e 15 69
e 15 70
e 15 71
e 15 72
e 15 75
e 15 77
e 15 78
e 15 81
e 15 82
e 15 83
e 15 91
e 15 95
e 15 99
e 16 17
e 16 25
e 16 32
e 16 34
e 16 36
e 16 38
e 16 40
e 16 41
e 16 46
e 16 48
e 16 49
e 16 50
e 16 59
e 16 65
e 16 66
e 16 69
e 16 71
e 16 72
e 16 74
e 16 77
e 16 78
e 16 79
e 16 80
e 16 86
e 16 88
e 16 89
e 16 92
e 16 95
e 16 96
e 16 97
e 16 99
e 17 20
e 17 22
e 17 25
e 17 27
e 17 31
e 17 32
e 17 34
e 17 37
e 17 39
e 17 40
e 17 41
e 17 43
e 17 44
e 17 47
e 17 48
e 17 49
e 17 52
e 17 54
e 17 56
e 17 57
e 17 59
e 17 61
e 17 64
e 17 65
e 17 67
e 17 70
e 17 75
e 17 79
e 17 84
e 17 87
e 17 88
e 17 89
e 17 90
e 17 96
e 17 98
e 17 99
e 18 19
e 18 23
e 18 25
e 18 28
e 18 31
e 18 32
e 18 34
e 18 42
e 18 45
e 18 48
e 18 49
e 18 51
e 18 52
e 18 55
e 18 56
e 18 60
e 18 63
e 18 65
e 18 66
e 18 68
e 18 69
e 18 70
e 18 73
e 18 74
e 18 75
e 18 76
e 18 77
e 18 78
e 18 82
e 18 83
e 18 87
e 18 89
e 18 95
e 18 100
e 19 21
e 19 22
e 19 24
e 19 28
e 19 29
e 19 31
e 19 33
e 19 34
e 19 35
e 19 36
e 19 38
e 19 41
e 19 43
e 19 47
e 19 48
e 19 50
e 19 51
e 19 54
e 19 56
e 19 67
e 19 68
e 19 69
e 19 73
e 19 75
e 19 79
e 19 81
e 19 82
e 19 84
e 19 87
e 19 88
e 19 91
e 19 97
e 19 98
e 19 99
e 20 22
e 20 24
e 20 26
e 20 29
e 20 31
e 20 41
e 20 42
e 20 55
e 20 57
e 20 58
e 20 59
e 20 61
e 20 64
e 20 68
e 20 71
e 20 72
e 20 75
e 20 77
e 20 80
e 20 81
e 20 82
e 20 83
e 20 84
e 20 90
e 20 91
e 20 94
e 20 99
e 20 100
e 21 22
e 21 24
e 21 30
e 21 32
e 21 36
e 21 41
e 21 42
e 21 43
e 21 44
e 21 45
e 21 50
e 21 54
e 21 60
e 21 62
e 21 64
e 21 67
e 21 68
e 21 69
e 21 71
e 21 74
e 21 78
e 21 79
e 21 86
e 21 87
e 21 95
e 21 96
e 21 97
e 21 98
e 22 27
e 22 30
e 22 32
e 22 34
e 22 37
e 22 40
e 22 48
e 22 50
e 22 51
e 22 53
e 22 60
e 22 62
e 22 66
e 22 67
e 22 68
e 22 72
e 22 75
e 22 77
e 22 78
e 22 79
e 22 82
e 22 83
e 22 84
e 22 86
e 22 87
e 22 95
e 22 98
e 22 99
e 22 100
e 23 27
e 23 29
e 23 30
e 23 31
e 23 36
e 23 37
e 23 38
e 23 42
e 23 47
e 23 49
e 23 50
e 23 51
e 23 53
e 23 54
e 23 58
e 23 60
e 23 62
e 23 64
e 23 67
e 23 68
e 23 69
e 23 70
e 23 74
e 23 76
e 23 77
e 23 80
e 23 82
e 23 83
e 23 85
e 23 86
e 23 88
e 23 91
e 23 94
e 23 97
e 23 99
e 24 27
e 24 28
e 24 30
e 24 31
e 24 33
e 24 34
e 24 37
e 24 40
e 24 47
e 24 48
e 24 54
e 24 55
e 24 57
e 24 58
e 24 64
e 24 66
e 24 72
e 24 73
e 24 75
e 24 76
e 24 78
e 24 79
e 24 80
e 24 83
e 24 86
e 24 90
e 24 91
e 24 93
e 24 98
e 24 99
e 25 28
e 25 31
e 25 32
e 25 35
e 25 36
e 25 38
e 25 40
e 25 41
e 25 47
e 25 48
e 25 51
e 25 52
e 25 53
e 25 54
e 25 57
e 25 58
e 25 59
e 25 63
e 25 64
e 25 70
e 25 72
e 25 73
e 25 76
e 25 88
e 25 90
e 25 91
e 25 96
e 26 27
e 26 33
e 26 35
e 26 40
e 26 45
e 26 54
e 26 55
e 26 56
e 26 57
e 26 60
e 26 62
e 26 65
e 26 66
e 26 68
e 26 69
e 26 73
e 26 74
e 26 76
e 26 84
e 26 86
e 26 90
e 26 97
e 26 98
e 26 99
e 27 31
e 27 35
e 27 37
e 27 41
e 27 45
e 27 46
e 27 50
e 27 52
e 27 55
e 27 58
e 27 59
e 27 63
e 27 64
e 27 74
e 27 75
e 27 76
e 27 77
e 27 78
e 27 80
e 27 81
e 27 83
e 27 85
e 27 86
e 27 93
e 27 96
e 27 99
e 28 29
e 28 32
e 28 34
e 28 38
e 28 41
e 28 42
e 28 43
e 28 48
e 28 49
e 28 53
e 28 56
e 28 63
e 28 64
e 28 65
e 28 74
e 28 75
e 28 76
e 28 80
e 28 84
e 28 86
e 28 90
e 28 91
e 28 94
e 28 95
e 28 100
e 29 31
e 29 32
e 29 33
e 29 37
e 29 40
e 29 41
e 29 42
e 29 43
e 29 48
e 29 50
e 29 51
e 29 56
e 29 59
e 29 60
e 29 66
e 29 69
e 29 74
e 29 77
e 29 80
e 29 81
e 29 86
e 29 88
e 29 90
e 29 97
e 30 35
e 30 36
e 30 40
e 30 46
e 30 49
e 30 50
e 30 54
e 30 56
e 30 62
e 30 65
e 30 66
e 30 69
e 30 72
e 30 73
e 30 74
e 30 76
e 30 77
e 30 86
e 30 91
e 30 92
e 30 93
e 30 95
e 30 96
e 30 98
e 30 100
e 31 32
e 31 33
e 31 34
e 31 35
e 31 38
e 31 39
e 31 46
e 31 47
e 31 50
e 31 51
e 31 53
e 31 54
e 31 56
e 31 57
e 31 60
e 31 62
e 31 66
e 31 67
e 31 68
e 31 70
e 31 74
e 31 75
e 31 77
e 31 79
e 31 82
e 31 86
e 31 88
e 31 90
e 31 92
e 31 94
e 31 96
e 32 33
e 32 35
e 32 37
e 32 38
e 32 44
e 32 45
e 32 47
e 32 49
e 32 54
e 32 55
e 32 56
e 32 57
e 32 59
e 32 63
e 32 64
e 32 67
e 32 68
e 32 70
e 32 71
e 32 75
e 32 76
e 32 78
e 32 79
e 32 80
e 32 84
e 32 88
e 32 89
e 32 92
e 32 94
e 32 95
e 32 99
e 32 100
e 33 38
e 33 40
e 33 41
e 33 42
e 33 49
e 33 50
e 33 51
e 33 52
e 33 54
e 33 56
e 33 58
e 33 64
e 33 66
e 33 67
e 33 68
e 33 70
e 33 71
e 33 73
e 33 78
e 33 80
e 33 82
e 33 86
e 33 89
e 33 93
e 33 96
e 33 97
e 33 99
e 34 36
e 34 37
e 34 40
e 34 41
e 34 42
e 34 45
e 34 47
e 34 49
e 34 51
e 34 52
e 34 54
e 34 60
e 34 62
e 34 64
e 34 66
e 34 67
e 34 73
e 34 76
e 34 86
e 34 88
e 34 90
e 34 92
e 34 93
e 34 96
e 34 98
e 34 99
e 34 100
e 35 37
e 35 40
e 35 41
e 35 42
e 35 45
e 35 48
e 35 50
e 35 53
e 35 56
e 35 57
e 35 60
e 35 61
e 35 62
e 35 66
e 35 71
e 35 74
e 35 76
e 35 78
e 35 82
e 35 83
e 35 96
e 36 37
e 36 38
e 36 39
e 36 40
e 36 46
e 36 50
e 36 51
e 36 52
e 36 53
e 36 54
e 36 56
e 36 57
e 36 61
e 36 64
e 36 69
e 36 72
e 36 75
e 36 76
e 36 78
e 36 80
e 36 81
e 36 82
e 36 83
e 36 84
e 36 87
e 36 90
e 36 92
e 36 93
e 36 95
e 36 98
e 36 99
e 36 100
e 37 43
e 37 44
e 37 46
e 37 51
e 37 52
e 37 67
e 37 68
e 37 69
e 37 70
e 37 76
e 37 78
e 37 81
e 37 82
e 37 85
e 37 86
e 37 92
e 37 93
e 37 98
e 37 99
e 38 42
e 38 47
e 38 48
e 38 50
e 38 55
e 38 60
e 38 65
e 38 67
e 38 69
e 38 72
e 38 75
e 38 76
e 38 78
e 38 81
e 38 83
e 38 87
e 38 88
e 38 89
e 38 91
e 38 93
e 38 98
e 38 100
e 39 40
e 39 42
e 39 45
e 39 47
e 39 60
e 39 65
e 39 70
e 39 71
e 39 73
e 39 74
e 39 75
e 39 78
e 39 80
e 39 81
e 39 87
e 39 88
e 39 90
e 39 91
e 39 93
e 39 95
e 39 96
e 39 97
e 39 98
e 40 42
e 40 44
e 40 45
e 40 47
e 40 48
e 40 50
e 40 55
e 40 59
e 40 66
e 40 67
e 40 70
e 40 71
e 40 72
e 40 77
e 40 81
e 40 82
e 40 83
e 40 85
e 40 87
e 40 89
e 40 90
e 40 97
e 40 98
e 40 99
e 41 43
e 41 56
e 41 59
e 41 61
e 41 63
e 41 70
e 41 76
e 41 80
e 41 81
e 41 83
e 41 91
e 41 93
e 41 96
e 41 100
e 42 50
e 42 51
e 42 52
e 42 53
e 42 56
e 42 57
e 42 58
e 42 59
e 42 64
e 42 65
e 42 67
e 42 70
e 42 71
e 42 72
e 42 73
e 42 74
e 42 77
e 42 78
e 42 80
e 42 81
e 42 83
e 42 84
e 42 90
e 42 91
e 42 93
e 43 44
e 43 49
e 43 50
e 43 55
e 43 56
e 43 58
e 43 59
e 43 60
e 43 62
e 43 63
e 43 71
e 43 74
e 43 76
e 43 77
e 43 79
e 43 80
e 43 81
e 43 85
e 43 86
e 43 87
e 43 94
e 43 95
e 43 96
e 43 97
e 43 100
e 44 45
e 44 49
e 44 50
e 44 53
e 44 55
e 44 57
e 44 59
e 44 62
e 44 63
e 44 66
e 44 69
e 44 70
e 44 74
e 44 75
e 44 76
e 44 77
e 44 78
e 44 79
e 44 81
e 44 82
e 44 83
e 44 85
e 44 91
e 44 92
e 44 98
e 45 46
e 45 48
e 45 54
e 45 55
e 45 58
e 45 59
e 45 60
e 45 61
e 45 62
e 45 67
e 45 69
e 45 75
e 45 76
e 45 77
e 45 78
e 45 80
e 45 81
e 45 85
e 45 87
e 45 88
e 45 89
e 45 91
e 45 96
e 45 98
e 45 99
e 46 51
e 46 53
e 46 55
e 46 56
e 46 66
e 46 68
e 46 69
e 46 72
e 46 73
e 46 79
e 46 82
e 46 87
e 46 88
e 46 89
e 46 91
e 46 94
e 46 97
e 47 48
e 47 54
e 47 55
e 47 56
e 47 60
e 47 61
e 47 62
e 47 63
e 47 65
e 47 66
e 47 67
e 47 69
e 47 70
e 47 71
e 47 72
e 47 76
e 47 78
e 47 82
e 47 87
e 47 89
e 47 91
e 47 95
e 47 96
e 47 99
e 48 51
e 48 52
e 48 54
e 48 55
e 48 58
e 48 60
e 48 62
e 48 64
e 48 65
e 48 68
e 48 69
e 48 70
e 48 72
e 48 73
e 48 75
e 48 77
e 48 81
e 48 82
e 48 84
e 48 92
e 48 94
e 48 95
e 48 97
e 48 100
e 49 51
e 49 53
e 49 56
e 49 64
e 49 65
e 49 66
e 49 67
e 49 71
e 49 73
e 49 76
e 49 77
e 49 79
e 49 80
e 49 89
e 49 90
e 49 92
e 49 93
e 49 94
e 49 97
e 49 98
e 50 51
e 50 54
e 50 57
e 50 60
e 50 61
e 50 63
e 50 66
e 50 67
e 50 69
e 50 70
e 50 72
e 50 74
e 50 77
e 50 78
e 50 81
e 50 84
e 50 85
e 50 89
e 50 90
e 50 92
e 50 97
e 51 52
e 51 53
e 51 58
e 51 59
e 51 61
e 51 64
e 51 70
e 51 73
e 51 74
e 51 77
e 51 78
e 51 86
e 51 88
e 51 89
e 51 93
e 51 95
e 51 100
e 52 54
e 52 55
e 52 57
e 52 59
e 52 61
e 52 64
e 52 68
e 52 69
e 52 72
e 52 73
e 52 74
e 52 75
e 52 80
e 52 82
e 52 83
e 52 86
e 52 88
e 52 89
e 52 91
e 52 94
e 52 95
e 52 98
e 53 54
e 53 58
e 53 59
e 53 62
e 53 63
e 53 64
e 53 66
e 53 69
e 53 71
e 53 72
e 53 74
e 53 76
e 53 79
e 53 80
e 53 81
e 53 84
e 53 85
e 53 87
e 53 90
e 53 92
e 53 96
e 54 57
e 54 58
e 54 61
e 54 62
e 54 64
e 54 65
e 54 67
e 54 70
e 54 71
e 54 72
e 54 75
e 54 76
e 54 82
e 54 87
e 54 88
e 54 90
e 54 92
e 54 93
e 54 99
e 54 100
e 55 56
e 55 57
e 55 60
e 55 61
e 55 65
e 55 68
e 55 70
e 55 71
e 55 76
e 55 79
e 55 83
e 55 86
e 55 87
e 55 88
e 55 89
e 55 90
e 55 92
e 55 95
e 56 57
e 56 63
e 56 64
e 56 65
e 56 68
e 56 69
e 56 71
e 56 75
e 56 77
e 56 80
e 56 81
e 56 83
e 56 84
e 56 85
e 56 86
e 56 89
e 56 92
e 56 93
e 56 94
e 56 97
e 57 60
e 57 61
e 57 66
e 57 67
e 57 68
e 57 70
e 57 71
e 57 72
e 57 75
e 57 76
e 57 79
e 57 85
e 57 87
e 57 90
e 57 91
e 57 92
e 57 93
e 57 94
e 57 96
e 58 60
e 58 63
e 58 64
e 58 65
e 58 72
e 58 74
e 58 75
e 58 76
e 58 77
e 58 80
e 58 83
e 58 84
e 58 86
e 58 88
e 58 97
e 58 98
e 59 62
e 59 63
e 59 66
e 59 67
e 59 70
e 59 72
e 59 74
e 59 76
e 59 79
e 59 80
e 59 82
e 59 87
e 59 91
e 59 92
e 59 93
e 59 95
e 59 97
e 60 63
e 60 64
e 60 66
e 60 67
e 60 69
e 60 72
e 60 73
e 60 76
e 60 77
e 60 80
e 60 86
e 60 89
e 60 92
e 60 96
e 60 97
e 60 100
e 61 64
e 61 66
e 61 68
e 61 70
e 61 71
e 61 74
e 61 75
e 61 78
e 61 80
e 61 81
e 61 82
e 61 84
e 61 85
e 61 87
e 61 89
e 61 94
e 61 96
e 61 97
e 62 63
e 62 65
e 62 66
e 62 67
e 62 70
e 62 72
e 62 75
e 62 76
e 62 77
e 62 79
e 62 80
e 62 83
e 62 84
e 62 88
e 62 90
e 62 96
e 62 97
e 62 98
e 63 64
e 63 68
e 63 69
e 63 72
e 63 74
e 63 75
e 63 76
e 63 77
e 63 78
e 63 79
e 63 80
e 63 83
e 63 85
e 63 86
e 63 87
e 63 90
e 63 96
e 63 99
e 63 100
e 64 67
e 64 72
e 64 74
e 64 75
e 64 76
e 64 77
e 64 79
e 64 81
e 64 82
e 64 83
e 64 87
e 64 88
e 64 89
e 64 92
e 64 93
e 64 94
e 64 96
e 65 66
e 65 69
e 65 70
e 65 71
e 65 78
e 65 79
e 65 83
e 65 86
e 65 88
e 65 89
e 65 92
e 65 96
e 65 98
e 65 100
e 66 67
e 66 69
e 66 73
e 66 78
e 66 81
e 66 83
e 66 86
e 66 88
e 66 90
e 67 69
e 67 70
e 67 71
e 67 78
e 67 80
e 67 81
e 67 82
e 67 83
e 67 84
e 67 86
e 67 89
e 67 90
e 67 92
e 67 96
e 67 97
e 68 75
e 68 76
e 68 77
e 68 80
e 68 85
e 68 86
e 68 87
e 68 89
e 68 97
e 68 98
e 68 99
e 68 100
e 69 70
e 69 74
e 69 75
e 69 76
e 69 78
e 69 82
e 69 83
e 69 84
e 69 87
e 69 90
e 69 91
e 69 93
e 69 99
e 70 71
e 70 72
e 70 73
e 70 76
e 70 77
e 70 78
e 70 79
e 70 81
e 70 82
e 70 84
e 70 93
e 70 96
e 71 77
e 71 79
e 71 80
e 71 92
e 71 93
e 71 97
e 72 75
e 72 77
e 72 80
e 72 82
e 72 83
e 72 85
e 72 86
e 72 89
e 72 91
e 72 92
e 72 94
e 72 98
e 72 100
e 73 76
e 73 82
e 73 83
e 73 84
e 73 90
e 73 94
e 73 100
e 74 75
e 74 76
e 74 78
e 74 80
e 74 83
e 74 84
e 74 88
e 74 93
e 74 98
e 75 78
e 75 82
e 75 85
e 75 86
e 75 92
e 75 98
e 75 100
e 76 80
e 76 82
e 76 83
e 76 84
e 76 85
e 76 86
e 76 87
e 76 96
e 76 99
e 77 82
e 77 83
e 77 84
e 77 91
e 77 96
e 77 97
e 77 98
e 77 100
e 78 80
e 78 83
e 78 84
e 78 86
e 78 88
e 78 89
e 78 92
e 78 93
e 78 94
e 78 100
e 79 80
e 79 82
e 79 84
e 79 87
e 79 88
e 79 91
e 79 94
e 79 95
e 79 96
e 80 81
e 80 83
e 80 85
e 80 86
e 80 92
e 80 94
e 80 95
e 80 96
e 80 98
e 81 85
e 81 86
e 81 87
e 81 88
e 81 91
e 81 92
e 81 95
e 81 96
e 81 100
e 82 86
e 82 88
e 82 91
e 82 93
e 83 84
e 83 86
e 83 95
e 83 96
e 83 97
e 83 98
e 83 99
e 83 100
e 84 89
e 84 90
e 84 93
e 84 97
e 84 98
e 84 99
e 85 88
e 85 89
e 85 93
e 85 97
e 85 100
e 86 87
e 86 89
e 86 90
e 86 96
e 86 99
e 86 100
e 87 88
e 87 90
e 87 94
e 87 95
e 87 97
e 87 98
e 88 92
e 88 96
e 88 99
e 89 93
e 89 96
e 89 100
e 90 91
e 90 92
e 90 93
e 90 95
e 90 96
e 91 92
e 91 94
e 91 97
e 91 99
e 91 100
e 92 93
e 92 96
e 92 98
e 92 99
e 92 100
e 93 100
e 94 95
e 94 99
e 94 100
e 95 98
e 95 99
e 96 97
e 96 98
e 97 99
e 97 100
e 98 99
e 99 100